(declare-fun c () String)
(declare-fun g () String)
(declare-fun b () String)
(declare-fun d () String)
(declare-fun f () String)
(declare-fun a () String)
(declare-fun h () String)
(assert (= (str.++ f "fefh") "eh"))
(assert (= (str.++ a a f d c) (str.++ c "dd")))
(assert (= (str.++ "f" g b "hd" h) (str.++ "be" b)))

(check-sat)
